p idrup
i -3 4 0
i 14 -19 0
i 11 7 0
i -17 -7 0
i 1 9 0
i 19 17 0
i -12 -18 -10 0
i -6 -2 12 0
i -1 10 0
i -14 -13 0
i -10 2 3 0
i 13 10 0
i -9 -11 0
i 5 18 0
i -15 -5 0
i 16 6 0
i -16 8 0
q 15 -8 -4 0
l -10 -6 3 -18 0
s UNSATISFIABLE
u -4 -8 15 0
